

xc.functional         GGA
xc.authors            PBEJsJrLO

PAO.OldStylePolOrbs   F

MeshSubDivisions   4

NumberOfSpecies    5

%block ChemicalSpeciesLabel
 1   201  H-0.750
 2     7  N
 3    31  Ga
 4     1  H
 5   201  H-1.250
%endblock ChemicalSpeciesLabel

PAO.BasisSize    TZP
PAO.EnergyShift  10.0 meV

MeshCutoff   500 Ry

PAO.SplitNorm    0.30
PAO.SplitNormH   0.50

PAO.SoftDefault  T

PAO.NewSplitCode        T
PAO.BasisType split


%Block PAO.Basis
N   3      0.00000
n=2   0    3  E  40.00  -0.90
5.778      2.234      2.729
1.000      1.000      1.000
n=2   1    3  E  40.00  -0.90 
6.713     2.022      2.798
1.000      1.000      1.000
n=3   2    2  E  40.00  -0.90
5.635      2.532
1.000      1.000
Ga   3      0.000
n=4   0     3  E  40.00  -0.90
6.966     3.823     4.669
1.000     1.000     1.000
n=4   1     3  E  40.00  -0.90
9.641     3.290     4.554
1.000     1.000     1.000
n=3   2      2  E  40.00  -0.90
3.728     2.046
1.000     1.000
H     3    0.000
n=1   0      4      E    40.0   -0.900
7.026    3.002      3.855      4.593
1.000    1.000      1.000      1.000
n=2   1      1      E    40.0   -0.900
5.471
1.000
n=3   2      1      E    40.0   -0.900
2.011
1.000
H-0.750      3    0.000
n=1   0      4      E    40.0   -0.900
7.026    3.002      3.855      4.593
1.000    1.000      1.000      1.000
n=2   1      1      E    40.0   -0.900
5.471
1.000
n=3   2      1      E    40.0   -0.900
2.011
1.000
H-1.250      3    0.000
n=1   0      4      E    40.0   -0.900
7.026    3.002      3.855      4.593
1.000    1.000      1.000      1.000
n=2   1      1      E    40.0   -0.900
5.471
1.000
n=3   2      1      E    40.0   -0.900
2.011
1.000
%EndBlock PAO.Basis

%block PS.lmax
H          2
N          2
Ga         2
H-1.250    2
H-0.750    2
%endblock PS.lmax


%block SyntheticAtoms
1
1  2  3  4
0.750000    0.000000    0.000000    0.000000
5
1  2  3  4
1.250000    0.000000    0.000000    0.000000
%endblock SyntheticAtoms






